
Gurobi 11.0.0 (win64) logging started Mon May 20 08:42:10 2024

Set parameter LogFile to value "./Results/StripPacking-SequencePairBranchRuns/Logs/SUspb-010-StripPacking-10.log"
Set parameter TimeLimit to value 10800
Set parameter Cuts to value 0
Set parameter Presolve to value 1
Set parameter Heuristics to value 0
Set parameter LPWarmStart to value 2
Gurobi Optimizer version 11.0.0 build v11.0.0rc2 (win64 - Windows 10.0 (19045.2))

CPU model: Intel(R) Core(TM) i9-10980XE CPU @ 3.00GHz, instruction set [SSE2|AVX|AVX2|AVX512]
Thread count: 18 physical cores, 36 logical processors, using up to 18 threads

Optimize a model with 2035 rows, 201 columns and 5780 nonzeros
Model fingerprint: 0x81da82df
Variable types: 21 continuous, 180 integer (180 binary)
Coefficient statistics:
  Matrix range     [1e+00, 1e+04]
  Objective range  [1e+00, 1e+00]
  Bounds range     [1e+00, 1e+04]
  RHS range        [1e+00, 1e+04]
Using branch priorities.

Warning: Completing partial solution with 180 unfixed non-continuous variables out of 180
User MIP start produced solution with objective 50 (0.00s)
Loaded user MIP start with objective 50

Presolve removed 365 rows and 22 columns
Presolve time: 0.02s
Presolved: 1670 rows, 179 columns, 4921 nonzeros
Variable types: 21 continuous, 158 integer (158 binary)

Root relaxation: objective 3.500000e+01, 199 iterations, 0.02 seconds (0.01 work units)

    Nodes    |    Current Node    |     Objective Bounds      |     Work
 Expl Unexpl |  Obj  Depth IntInf | Incumbent    BestBd   Gap | It/Node Time

     0     0   35.00000    0    2   50.00000   35.00000  30.0%     -    0s
     0     0   35.00000    0    2   50.00000   35.00000  30.0%     -    0s
     0     2   35.00000    0    2   50.00000   35.00000  30.0%     -    0s
*  413   482              17      47.0000000   35.00000  25.5%  16.2    0s
*  457   482              19      46.0000000   35.00000  23.9%  15.7    0s
*  623   562              25      42.0000000   35.00000  16.7%  14.6    0s
* 1035   705              20      41.0000000   35.00000  14.6%  13.4    0s
* 2135   852              21      39.0000000   35.00000  10.3%  12.9    0s
* 2436   814              16      39.0000000   35.00000  10.3%  12.4    0s

Explored 5101 nodes (44606 simplex iterations) in 0.31 seconds (0.32 work units)
Thread count was 18 (of 36 available processors)

Solution count 7: 39 39 41 ... 50

Optimal solution found (tolerance 1.00e-04)
Best objective 3.899999999600e+01, best bound 3.899999999600e+01, gap 0.0000%
